20161228 0 10000 0 0
20120604 50 0 0 0
20110520 100 0 0 0
20100513 23 8000 0 0
20090515 200 0 0 0
20080409 300 0 0 0
20070412 100 0 0 0
20060522 100 0 0 0
20060210 0 3500 0 0
20050328 50 5000 0 0
20030326 200 0 0 0
20020415 200 0 0 0
19970605 200 0 0 0
